Version identifier: 22.1.0.0 | 2022-03-09 | 1a383f8ce
CPXPARAM_Threads                                 1
CPXPARAM_MIP_Strategy_VariableSelect             3
CPXPARAM_TimeLimit                               600
Tried aggregator 1 time.
MIP Presolve eliminated 1 rows and 382 columns.
Reduced MIP has 2685 rows, 8786 columns, and 46859 nonzeros.
Reduced MIP has 6877 binaries, 1909 generals, 0 SOSs, and 0 indicators.
Presolve time = 0.02 sec. (19.56 ticks)
Found incumbent of value 1.178000 after 0.07 sec. (50.17 ticks)
Probing fixed 0 vars, tightened 1 bounds.
Probing time = 0.01 sec. (4.82 ticks)
Cover probing fixed 0 vars, tightened 1 bounds.
Tried aggregator 1 time.
Detecting symmetries...
Reduced MIP has 2685 rows, 8786 columns, and 46859 nonzeros.
Reduced MIP has 6878 binaries, 1908 generals, 0 SOSs, and 0 indicators.
Presolve time = 0.03 sec. (24.24 ticks)
Probing time = 0.01 sec. (3.91 ticks)
Clique table members: 420.
MIP emphasis: balance optimality and feasibility.
MIP search method: dynamic search.
Parallel mode: none, using 1 thread.
Root relaxation solution time = 0.08 sec. (62.99 ticks)

        Nodes                                         Cuts/
   Node  Left     Objective  IInf  Best Integer    Best Bound    ItCnt     Gap

*     0+    0                            1.1780        0.0000           100.00%
      0     0        0.0000   726        1.1780        0.0000     1107  100.00%
*     0+    0                            0.0000        0.0000             0.00%
      0     0        cutoff              0.0000        0.0000     1107    0.00%
Elapsed time = 0.72 sec. (586.01 ticks, tree = 0.01 MB, solutions = 2)

Root node processing (before b&c):
  Real time             =    0.72 sec. (586.34 ticks)
Sequential b&c:
  Real time             =    0.00 sec. (0.00 ticks)
                          ------------
Total (root+branch&cut) =    0.72 sec. (586.34 ticks)
Primal number of violations:	0
Dual number of violations:	0
Status:	Optimal
Time:	0.73
Sequence:
	5
	4
	11
	9
	6
	0
	5
	9
	8
	9
	7
	4
	1
	4
	1
	0
	3
	4
	6
	0
	10
	4
	9
	9
	9
	9
	9
	9
	9
	9
	9
	9
	1
	9
	4
	9
	9
	9
	4
	9
	4
	9
	4
	4
	9
	9
	9
	9
	9
	1
	9
	4
	6
	9
	9
	9
	4
	4
	9
	4
	4
	9
	4
	9
	4
	9
	4
	4
	9
	4
	4
	9
	9
	4
	9
	4
	9
	9
	9
	9
	9
	9
	5
	9
	9
	9
	9
	9
	1
	9
	4
	1
	0
	5
	4
	9
	1
	4
	7
	9
	6
	4
	1
	4
	9
	6
	9
	5
	0
	5
	9
	5
	0
	4
	5
	0
	4
	5
	0
	5
	9
	5
	9
	0
	5
	4
	9
	5
	9
	9
	6
	9
	7
	0
	10
	4
	8
	9
	5
	0
	5
	9
	7
	0
	5
	4
	1
	9
	4
	7
	0
	1
	9
	5
	9
	7
	0
	6
	9
	1
	4
	1
	4
	1
	4
	0
	5
	9
	1
	9
	5
	0
	6
	9
	1
	9
	9
	6
	4
	1
	4
	6
	0
	1
	9
	7
	0
	6
	4
	1
	4
	4
	1
	4
	4
	3
	4
	4
	9
	9
	4
	1
	9
	1
	4
	1
	4
	1
	4
	4
	3
	4
	4
	1
	4
	4
	1
	4
	1
	4
	1
	9
	1
	9
	6
	9
	4
	4
	1
	4
	6
	0
	4
	1
	4
	6
	9
	4
	4
	1
	4
	1
	9
	1
	0
	1
	4
	1
	0
	1
	4
	1
	4
	4
	1
	9
	6
	4
	1
	4
	9
	4
	1
	4
	4
	1
	4
	4
	1
	9
	1
	9
	9
	1
	9
	1
	4
	1
	4
	1
	9
	1
	4
	11
	4
	5
	9
	6
	0
	5
	9
	6
	9
	9
	9
	9
	9
	6
	9
	1
	4
	7
	9
	6
	9
	9
	9
	7
	9
	9
	9
	9
	5
	9
	9
	6
	9
	9
	4
	4
	9
	4
	9
	9
	7
	9
	4
	6
	9
	1
	4
	5
	9
	7
	9
	9
	9
	9
	6
	9
	9
	7
	9
	6
	0
	1
	4
	6
	0
	1
	9
	6
	9
	4
	5
	9
	7
	0
	5
	9
	6
	9
	1
	4
	9
	6
	4
	9
	7
	4
	1
	9
	9
	4
	7
	9
	1
	9
	6
	4
	9
	7
